StringID   Type       x          y          demand     ReadyTime  DueDate    ServiceTime wp1 wp2 wp3 wp4 wp5 wp6 wp7 wp8 wp9 wp10 wp11 wp12 wp13 wp14 wp15 wp16 wp17 wp18 wp19 wp20 wp21
D0         d          40.0       50.0       0.0        0.0        1236.0     0.0         6   7   8   9   10  11  12  13  14  15   16   17   18   19   20   21   22   23   24   1    2 
S0         f          40.0       50.0       0.0        0.0        1236.0     0.0         0.2 0.4 0.6 1   1   1   1   1   1   1    1    0.6  0.4  0.2  0    0    0    0    0    0    0
S3         f          57.0       82.0       0.0        0.0        1236.0     0.0         0   0.1 0.2 0.3 0.3 0.2 0.2 0.2 0.2 0.3  0.3  0.2  0.1  0.0  0    0    0    0    0    0    0
S13        f          22.0       34.0       0.0        0.0        1236.0     0.0         0   0.1 0.2 0.3 0.3 0.2 0.2 0.2 0.2 0.3  0.3  0.2  0.1  0.0  0    0    0    0    0    0    0
S18        f          76.0       21.0       0.0        0.0        1236.0     0.0         0.2 0.4 0.6 1   1   1   1   1   1   1    1    0.6  0.4  0.2  0    0    0    0    0    0    0 
C72        c          53.0       30.0       10.0       0.0        1122.0     90.0       
C34        c          8.0        45.0       20.0       0.0        1113.0     90.0       
C80        c          85.0       25.0       10.0       0.0        1094.0     90.0       
C3         c          42.0       66.0       10.0       0.0        1129.0     90.0       
C88        c          65.0       60.0       30.0       0.0        1119.0     90.0       
C96        c          60.0       80.0       10.0       177.0      243.0      90.0       
C42        c          33.0       32.0       20.0       0.0        1126.0     90.0       
C22        c          28.0       52.0       20.0       0.0        1133.0     90.0       
C57        c          40.0       15.0       40.0       0.0        1111.0     90.0       
C48        c          28.0       30.0       10.0       0.0        1122.0     90.0       

F Vehicle fuel tank capacity /12/
Q Vehicle load capacity /200.0/
r fuel consumption rate /0.155/
g inverse refueling rate /0.5/
v average Velocity /1.0/
